(set-info :smt-lib-version 2.6)
(set-logic QF_S)
(set-info :source |
Generated by: Joel Day, Thorsten Ehlers, Mitja Kulczynski, Federico Mora, Florin Manea, Dirk Nowotka, Danny Poulsen, Zhengyang Lu
Application: Test WOORPJE
Target solver: WOORPJE
Publications: Day, J. D., Ehlers, T., Kulczynski, M., Manea, F., Nowotka, D., & Poulsen, D. B. (2019). On solving word equations using SAT. In RP 2019
Description: Consisting of a system of 100 small random word equations with at most 6 letters, 10 variables and length 60.
|)
(set-info :license "https://creativecommons.org/licenses/by/4.0/")
(set-info :category "random")
(set-info :status unknown)

(declare-fun I () String)
(declare-fun G () String)
(declare-fun A () String)
(declare-fun D () String)
(assert (= (str.++  "deacaaaddfdaadfaefabdaaaaceeecedfbcecccda" D "ecfdfdbfbbdeeece")  (str.++  "de" I A "aaa" G "aababeacbaeecffbbfefabbfaaacdaceecfdfdbfbbdeeece") ))
(assert (= (str.++  "cfdebfdfbedafebcaafeacbeaacfecfbcdecfeeefebeddccffafbdeacabadbedeebeaeedafebeffbcacdedfdfffbbac" "")  (str.++  "cfdebfdfbedafebcaafeacbeaacfecfbcdecfeeefebeddccffafbde" I "badbedeebeaeedafebeffbcacdedfdfffbbac") ))
(assert (= (str.++  "ccfaddadbfed" I "fbddeedccecdbbfecfffabffdbdcabeebdcfcafbaabbaadeecfecaeaafedcdadbefcdfdbceadeeda")  (str.++  "ccfaddadbfedacafbddeedccecdbbfecfffabffdbdcabeebdcfcafbaabbaadeecfecaeaafedcdadbefcdfdbceadeeda" "") ))
(assert (= (str.++  "ebccffebebfaabcb" I "eccfbecbebfceecfccfbdbffccbdbddaaceaeabfccdcbaaeabedffebdeeaefdcaeaacdcedadd")  (str.++  "ebccffebebfaabcb" I "eccfbecbebfceecfccfbdbffccbdbddaaceaeabfccdcbaaeabedffebdeeaefdcaeaacdcedadd") ))
(assert (= (str.++  "faaabffdddafddcfdcfcdeeaaedbfcbfeaffaeefcfbffebddeecdffccefaafcdbdcaacbdccfbacadbdadebcdcbecbbf" "")  (str.++  "faaabffdddafddcfdcfcdeeaaedbfcbfeaffaeefcfbffebddeecdffccefaafcdbdcaacbdccfb" I "dbdadebcdcbecbbf") ))
(assert (= (str.++  "ecfbacefafbcffdaeccccfdbfbedecdcedbadefecddabdaefefcfbadbdbebcafaeaaecaadcfdace" I "bfddafbdcceae")  (str.++  "ecfbacefafbcffdaeccccfdbfbedecdcedbadefecddabdaefefcfbadbdbebcafaeaaecaadcfdace" I "bfddafbdcceae") ))
(assert (= (str.++  "cbedbbdbbdedafdccdeccbfbcddadedbbacefaaecbbaeaceefdcebecbbdffbafaecbebeeefbdecfdfbeae" I "bededcd")  (str.++  "cbedbbdbbdedafdccdeccbfbcddadedbbacefaaecbbaeaceefdcebecbbdffbafaecbebeeefbdecfdfbeae" I "bededcd") ))
(assert (= (str.++  "bcdeadacdfcababbecabcffebcaceecfdfcecbbbfcbdacadccdaffdabdbcdeabbbfaedaebbdbfcebdccbaeddfcfbeff" "")  (str.++  "bcdeadacdfcababbecabcffebcaceecfdfcecbbbfcbd" I "dccdaffdabdbcdeabbbfaedaebbdbfcebdccbaeddfcfbeff") ))
(assert (= (str.++  "acbbcfedce" I "fcbeaeeebdaaafedadddecffdbdefbddfbaddbcefdefdebcdffedaffcdcbccaffdaaddecaacfaefbdb")  (str.++  "acbbcfedceacafcbeaeeebdaaafedadddecffdbdefbddfbaddbcefdefdebcdffedaffcdcbccaffdaaddecaacfaefbdb" "") ))
(assert (= (str.++  "ffafafdfcabcfaacacbdfdfedefdfaccadbeffbceafedbbabdadabaedfdebfcedbeecacbaaddaadaedbbeedacacdbeb" "")  (str.++  "ffafafdfcabcfa" I "cbdfdfedefdfaccadbeffbceafedbbabdadabaedfdebfcedbeecacbaaddaadaedbbeed" I "cdbeb") ))
(assert (= (str.++  "eedceeedffcfbcbdcafcccadeecaefacebacceacdfdfeedfffedb" I "bfcafbaedacebccaafffcffeafffdcfdfdbfecd")  (str.++  "eedceeedffcfbcbdcafcccadeecaefacebacceacdfdfeedfffedb" I "bfcafbaedacebccaafffcffeafffdcfdfdbfecd") ))
(assert (= (str.++  "fbccdbcffabdabbedbecbfaebcdedcdbefaafefaefabbdeccd" I "abdccfccdecaaeabdeebfcfbdbecdfadfbfffeeece")  (str.++  "fbccdbcffabdabbedbecbfaebcdedcdbefaafefaefabbdeccdacaabdccfccdecaaeabdeebfcfbdbecdfadfbfffeeece" "") ))
(assert (= (str.++  "bfefeaedadbcfebfaceddafdcbddbbfacbfdfebfedcccbbaeee" I "daeeffadddabbcfbdeacccaacafaccdabfefcbfdc")  (str.++  "bfefeaedadbcfebfaceddafdcbddbbfacbfdfebfedcccbbaeeeacadaeeffadddabbcfbdeacccaacafaccdabfefcbfdc" "") ))
(assert (= (str.++  "bdfccfeadebdafdaaaffcafcbcdeffacdcefeeaafbadfbfddabdbcdfbeffefbcafbacbfcfffcdbfecb" I "ecefddbaef")  (str.++  "bdfccfeadebdafdaaaffcafcbcdeffacdcefeeaafbadfbfddabdbcdfbeffefbcafbacbfcfffcdbfecb" I "ecefddbaef") ))
(assert (= (str.++  "ddecaceacbbdbcfbdaeacaebededbacbfabedaecfafadebddfdcdefcbbbbfdfdfdafddaeccdecbfdbcfcfdddcddfeed" "")  (str.++  "ddecaceacbbdbcfbdae" I "ebededbacbfabedaecfafadebddfdcdefcbbbbfdfdfdafddaeccdecbfdbcfcfdddcddfeed") ))
(assert (= (str.++  "ecfdfecabdeffbdabbdddfbfefaffeaabdbabfebcffaafadcfdddedbdcbafcdffdfccccfbfffdfa" I "dafecaecabdaf")  (str.++  "ecfdfecabdeffbdabbdddfbfefaffeaabdbabfebcffaafadcfdddedbdcbafcdffdfccccfbfffdfaacadafecaecabdaf" "") ))
(assert (= (str.++  "bfbdbaeacaafeacdadfdbcfacfebdcfbeceecaeeaaccabbafecbbefcdaffcfeefbbdadeedbcfbbccecfedbbefddacdd" "")  (str.++  "bfbdbae" I "afeacdadfdbcfacfebdcfbeceecaeeaaccabbafecbbefcdaffcfeefbbdadeedbcfbbccecfedbbefddacdd") ))
(assert (= (str.++  "cfadbcefebbbffdebdadaabeeecdcdadcfabebbbddeebeefbfcbfedacfaffbcaddc" I "afcfeafadcfefcebdbdfccdac")  (str.++  "cfadbcefebbbffdebdadaabeeecdcdadcfabebbbddeebeefbfcbfedacfaffbcaddcacaafcfeafadcfefcebdbdfccdac" "") ))
(assert (= (str.++  "fcfceffebdbbfdecdabacdcebfabadffcbccefbfbacaeefaeabafaefddfcfbedbadafbcbdcbdbffdbdadbebdfaddbcb" "")  (str.++  "fcfceffebdbbfdecdabacdcebfabadffcbccefbfb" I "eefaeabafaefddfcfbedbadafbcbdcbdbffdbdadbebdfaddbcb") ))
(assert (= (str.++  "caafcddcfbfbfbdeeaacccabfcadbabeaeeddaebdbbccdafdeeafacbaebebfaefdeebfccaadcbcaabdeafacadfcbbac" "")  (str.++  "caafcddcfbfbfbdeeaacccabfcadbabeaeeddaebdbbccdafdeeafacbaebebfaefdeebfccaadcbcaabdeaf" I "dfcbbac") ))
(assert (= (str.++  "fdeafabbcadfbebecfdcdefebebffbcddecabcefcacfaafdaddeceaadb" I "cfebfbcebbaacbfcdeacfefaebcddfdfab")  (str.++  "fdeafabbcadfbebecfdcdefebebffbcddecabcefcacfaafdaddeceaadb" I "cfebfbcebbaacbfcdeacfefaebcddfdfab") ))
(assert (= (str.++  "fadaebfaaceafddaaecceaddbeaefaeeaaffdbfbeabaddcbafebbfffaeadbebedeecdddedfafeffadfcbbfacaacbbbe" "")  (str.++  "fadaebfaaceafddaaecceaddbeaefaeeaaffdbfbeabaddcbafebbfffaeadbebedeecdddedfafeffadfcbbf" I "acbbbe") ))
(assert (= (str.++  "afefefccecabcccdbbfdddcaafabaedacecfccfdbfebceaeccfadedfcbaaacedddccefdadfecbeefeecfaff" I "cbdfd")  (str.++  "afefefccecabcccdbbfdddcaafabaedacecfccfdbfebceaeccfadedfcbaaacedddccefdadfecbeefeecfaff" I "cbdfd") ))
(assert (= (str.++  "fccaaaeffacbdecfaacbceedddefeedfbadecfcfcdefbdffdbbdebcabeebeeaccccbecfecfdbf" I "dddbeecdccbcdec")  (str.++  "fccaaaeffacbdecfaacbceedddefeedfbadecfcfcdefbdffdbbdebcabeebeeaccccbecfecfdbfacadddbeecdccbcdec" "") ))
(assert (= (str.++  "acbadddfdcfeafbdeeedfdffafdaeeeefa" I "eebcfdecabdeaffeabfcfdbdabfdfbabedbdfbefeedfaadbbeeecadbfd")  (str.++  "acbadddfdcfeafbdeeedfdffafdaeeeefaacaeebcfdecabdeaffeabfcfdbdabfdfbabedbdfbefeedfaadbbeeecadbfd" "") ))
(assert (= (str.++  "debbdfcadececbbcdcdddeecdcdcbeffabcadcddbeb" I "ceacedbebdfefcbafeeaefedbeddadcdafcfbdfbbccccbceb")  (str.++  "debbdfcadececbbcdcdddeecdcdcbeffabcadcddbebacaceacedbebdfefcbafeeaefedbeddadcdafcfbdfbbccccbceb" "") ))
(check-sat)

(exit)
